10J3M/DAT/10J3MNLX-13.dat
10 3
26.2474 5.1232
22.1076 4.7019
34.393 5.8646
14.2705 3.7776
26.8099 5.1778
16.989 4.1218
27.8967 5.2817
28.8604 5.3722
26.0734 5.1062
22.8108 4.7761
16.4344