10J3M/SOL/10J3MNLX-13.sol
solution status: optimal solution found
objective value:                     71.5998666666667
x#1#2                                               1 	(obj:0)
x#2#1                                               1 	(obj:0)
x#3#1                                               1 	(obj:0)
x#4#1                               0.313490244271313 	(obj:0)
x#4#3                               0.686509755728687 	(obj:0)
x#5#2                               0.973796635632913 	(obj:0)
x#5#3                               0.026203364367087 	(obj:0)
x#6#2                                               1 	(obj:0)
x#7#3                                               1 	(obj:0)
x#8#1                                               1 	(obj:0)
x#9#1                            0.000813202477718877 	(obj:0)
x#9#3                               0.999186797522281 	(obj:0)
x#10#2                              0.351226105085452 	(obj:0)
x#10#3                              0.648773894914548 	(obj:0)
z                                    71.5998666666667 	(obj:1)
